BEGIN IONS
PEPMASS=191.118
CHARGE=1
MSLEVEL=2
SOURCE_INSTRUMENT=ESI-LC-ESI-QTOF
FILENAME=Massbank_ESI_positive_8_1_2014_peaks.mgf
SEQ=*..*
IONMODE=Positive
ORGANISM=MASSBANK
NAME=Massbank:BML00001 Cytisine [M+H]+
PI=Putative Massbank Match
DATACOLLECTOR=Massbank
SMILES=C1[C@H]2CNC[C@@H]1C3=CC=CC(=O)N3C2
INCHI=1S/C11H14N2O/c14-11-3-1-2-10-9-4-8(5-12-6-9)7-13(10)11/h1-3,8-9,12H,4-7H2/t8-,9+/m0/s1
INCHIAUX=N/A
PUBMED=N/A
SUBMITUSER=mwang87
LIBRARYQUALITY=3
SPECTRUMID=CCMSLIB00000204741
SCANS=1
148.0752	7916.0
191.1173	46297.0
191.1565	668.0
191.1792	829.0
191.2088	492.0
191.2447	1265.0
END IONS



BEGIN IONS
PEPMASS=380.24
CHARGE=1
MSLEVEL=2
SOURCE_INSTRUMENT=ESI-FAB-EBEB
FILENAME=Massbank_ESI_positive_8_1_2014_peaks.mgf
SEQ=*..*
IONMODE=Positive
ORGANISM=MASSBANK
NAME=Massbank:CA000007 12'-Apoastaxanthinal [M]+*
PI=Putative Massbank Match
DATACOLLECTOR=Massbank
SMILES=O=CC(C)=CC=CC=C(C)C=CC=C(C)C=CC(=C(C)1)C(C)(C)CC(O)C(=O)1
INCHI=1S/C25H32O3/c1-18(10-7-8-11-20(3)17-26)12-9-13-19(2)14-15-22-21(4)24(28)23(27)16-25(22,5)6/h7-15,17,23,27H,16H2,1-6H3/b8-7+,12-9+,15-14+,18-10+,19-13+,20-11+/t23-/m0/s1
INCHIAUX=N/A
PUBMED=N/A
SUBMITUSER=mwang87
LIBRARYQUALITY=3
SPECTRUMID=CCMSLIB00000205454
SCANS=714
0.0277	0.01
0.0487	0.01
0.3877	0.03
0.9282	0.01
1.2453	0.01
2.5514	0.01
3.5588	0.01
9.2832	0.01
9.5355	0.01
11.4133	0.01
11.9427	0.04
12.0066	0.01
12.9495	0.14
13.9579	0.13
14.4436	0.01
14.9627	0.58
15.9691	0.01
18.954	0.08
22.9151	0.23
23.9408	0.03
24.1769	0.01
24.9326	0.28
25.9367	1.1
26.1956	0.01
26.9429	6.42
27.9455	0.76
28.9431	4.64
29.9299	0.23
30.9358	0.68
35.7434	0.02
35.9265	0.07
36.056	0.02
36.1875	0.02
36.9228	0.98
37.1033	0.02
37.2257	0.01
37.3411	0.01
37.4393	0.01
37.6028	0.03
37.6796	0.03
37.7726	0.01
37.9307	2.41
38.1588	0.01
38.317	0.05
38.4837	0.02
38.6433	0.02
38.7559	0.04
38.9373	18.65
39.2104	0.02
39.3248	0.01
39.4051	0.01
39.4986	0.02
39.5841	0.01
39.7307	0.01
39.9426	2.48
40.0642	0.01
40.1196	0.01
40.2851	0.02
40.95	27.67
41.1511	0.02
41.5699	0.01
41.7307	0.01
41.9439	0.71
42.5928	0.01
42.9389	15.75
43.1709	0.02
43.7012	0.01
43.9357	0.3
44.9456	0.93
45.9468	0.03
46.9125	0.11
47.8599	0.03
47.9324	0.03
48.1789	0.01
48.4574	0.02
48.6938	0.03
48.9228	0.6
49.0829	0.02
49.2618	0.04
49.3267	0.04
49.5092	0.04
49.6926	0.01
49.927	5.96
50.084	0.03
50.1927	0.02
50.3565	0.01
50.5275	0.01
50.9329	13.4
51.1012	0.01
51.1994	0.01
51.3855	0.01
51.694	0.04
51.9415	5.22
52.9472	20.77
53.5484	0.04
53.7706	0.03
53.9568	1.84
54.4056	0.02
54.6536	0.02
54.9593	21.62
55.2349	0.01
55.4047	0.03
55.9639	0.37
56.9746	4.22
57.198	0.01
57.4499	0.05
57.9345	0.38
58.9641	1.12
59.8911	0.09
59.9673	0.05
60.2464	0.02
60.4115	0.01
60.5011	0.02
60.6987	0.01
60.9118	0.91
61.1865	0.04
61.2715	0.03
61.4113	0.01
61.4915	0.03
61.6589	0.02
61.9202	3.29
62.1524	0.03
62.358	0.02
62.4502	0.03
62.534	0.03
62.9307	10.19
63.2578	0.07
63.3928	0.02
63.4894	0.08
63.9376	2.34
64.0896	0.07
64.2417	0.05
64.3889	0.08
64.4998	0.03
64.6435	0.03
64.9424	19.37
65.1289	0.03
65.2134	0.01
65.5343	0.02
65.6993	0.03
65.9499	4.29
66.1654	0.02
66.2859	0.02
66.5085	0.03
66.6234	0.02
66.7264	0.02
66.9555	14.21
67.2133	0.08
67.9525	0.79
68.3102	0.01
68.4125	0.03
68.5367	0.02
68.6647	0.04
68.9527	11.89
69.1223	0.06
69.3866	0.15
69.5958	0.02
69.7258	0.02
69.9486	0.6
70.3408	0.02
70.4427	0.13
70.9471	5.75
71.0968	0.06
71.2365	0.01
71.3929	0.03
71.6872	0.01
71.9333	0.13
72.2472	0.01
72.705	0.01
72.9311	0.49
73.1553	0.02
73.2526	0.01
73.4602	0.01
73.5915	0.02
73.9155	2.85
74.4967	0.03
74.5552	0.03
74.9191	3.65
75.1133	0.11
75.3382	0.08
75.4486	0.13
75.6004	0.1
75.9239	2.86
76.2899	0.13
76.9365	45.85
77.217	0.12
77.4744	0.11
77.9413	10.89
78.135	0.12
78.3942	0.07
78.6077	0.14
78.6879	0.08
78.9525	29.91
79.1679	0.07
79.3452	0.09
79.4035	0.03
79.4685	0.03
79.7161	0.02
79.9566	4.53
80.1964	0.05
80.3382	0.08
80.582	0.06
80.9646	16.52
81.1148	0.12
81.2355	0.06
81.2996	0.06
81.4196	0.06
81.5772	0.03
81.9413	2.32
82.1722	0.12
82.2449	0.02
82.4229	0.12
82.5885	0.05
82.9555	5.06
83.1697	0.01
83.2884	0.01
83.4985	0.05
83.6975	0.04
83.7739	0.02
83.9576	0.53
84.4441	0.07
84.5704	0.01
84.6817	0.03
84.7573	0.04
84.9697	5.0
85.2356	0.05
85.3255	0.02
85.4408	0.01
85.532	0.04
85.6857	0.01
85.9268	1.03
86.2258	0.01
86.4223	0.04
86.6957	0.02
86.9342	2.33
87.6159	0.03
87.94	1.25
88.1536	0.03
88.2967	0.02
88.4455	0.07
88.5719	0.09
88.9463	6.07
89.3479	0.25
89.5624	0.15
89.9435	2.52
90.1739	0.17
90.3601	0.23
90.9594	75.49
91.2601	0.14
91.3645	0.07
91.6102	0.07
91.967	7.2
92.1851	0.02
92.2547	0.02
92.5304	0.07
92.6637	0.1
92.978	18.95
93.2928	0.09
93.445	0.08
93.5611	0.06
93.9753	2.94
94.1535	0.02
94.2972	0.04
94.4933	0.21
94.6585	0.07
94.9667	25.45
95.3071	0.07
95.4996	0.07
95.5587	0.03
95.6786	0.04
95.7797	0.06
95.9724	2.29
96.1739	0.01
96.3211	0.05
96.4938	0.1
96.6416	0.02
96.9784	2.44
97.484	0.07
97.9426	0.91
98.2152	0.05
98.3397	0.02
98.9533	0.64
99.1995	0.02
99.4598	0.01
99.6473	0.02
99.8099	0.03
99.9492	0.41
100.146	0.01
100.5883	0.12
100.9209	1.4
101.2439	0.14
101.5706	0.03
101.9437	5.32
102.1654	0.11
102.2941	0.08
102.6481	0.18
102.9529	15.61
103.1259	0.19
103.2393	0.1
103.3832	0.04
103.5055	0.1
103.6018	0.07
103.9538	7.12
104.1597	0.06
104.3042	0.09
104.9608	49.72
105.2187	0.13
105.4723	0.14
105.966	5.75
106.1822	0.06
106.3465	0.09
106.4356	0.09
106.5779	0.08
106.9693	14.7
107.1432	0.1
107.3264	0.09
107.4724	0.16
107.9513	3.54
108.2235	0.15
108.4193	0.08
108.498	0.06
108.9646	9.28
109.3065	0.1
109.439	0.11
109.5716	0.03
109.6712	0.02
109.9502	1.18
110.1696	0.03
110.3285	0.04
110.4412	0.13
110.9574	2.56
111.1829	0.04
111.3108	0.01
111.4695	0.06
111.6844	0.01
111.9412	0.3
112.1491	0.11
112.3209	0.08
112.936	1.59
113.0458	0.27
113.3151	0.29
113.4326	0.12
113.9242	1.62
114.935	48.94
115.1936	0.24
115.3315	0.18
115.4578	0.12
115.9405	15.02
116.9431	33.68
117.2974	0.18
117.5859	0.09
117.6824	0.05
117.953	6.57
118.1887	0.09
118.2722	0.09
118.4626	0.12
118.9604	35.35
119.2736	0.15
119.4682	0.17
119.5658	0.07
119.9606	4.69
120.1855	0.07
120.3335	0.02
120.523	0.09
120.6278	0.03
120.957	11.67
121.1981	0.08
121.3283	0.04
121.5022	0.03
121.6307	0.04
121.9471	1.88
122.2407	0.08
122.3967	0.08
122.4996	0.06
122.6002	0.03
122.9526	4.29
123.2103	0.02
123.4776	0.17
123.9572	2.06
124.1171	0.03
124.3407	0.03
124.4813	0.08
124.9522	2.68
125.21	0.1
125.3968	0.19
125.5641	0.16
125.9252	2.2
126.2076	0.13
126.9347	17.18
127.2015	0.42
127.9378	46.84
128.193	0.43
128.9459	40.57
129.3538	0.13
129.5576	0.07
129.958	13.68
130.1828	0.12
130.4444	0.15
130.9642	28.33
131.2478	0.23
131.3864	0.17
131.9652	7.55
132.2363	0.06
132.4988	0.19
132.9725	19.65
133.3162	0.17
133.5357	0.11
133.9848	7.22
134.2321	0.12
134.532	0.1
134.9832	18.01
135.233	0.26
135.3128	0.14
135.4551	0.09
135.5554	0.09
135.9678	2.72
136.2169	0.08
136.4058	0.04
136.9819	3.88
137.1754	0.09
137.3896	0.01
137.5006	0.02
137.5782	0.05
137.6696	0.06
137.9729	0.78
138.1383	0.12
138.222	0.11
138.3284	0.09
138.4025	0.07
138.9565	7.24
139.3598	0.07
139.4774	0.03
139.9765	2.06
140.9724	35.12
141.1638	0.46
141.2581	0.17
141.9787	21.52
142.3851	0.19
142.6363	0.26
142.9912	29.29
143.3089	0.27
143.4121	0.18
143.5979	0.17
144.0007	10.46
144.3333	0.13
145.0026	30.36
145.3373	0.15
145.5072	0.14
146.0024	5.24
146.1958	0.21
146.5951	0.24
147.0171	21.74
147.3371	0.11
148.0085	2.88
148.2013	0.05
148.3959	0.08
148.5335	0.13
148.5867	0.07
149.0162	5.26
149.3127	0.23
149.9876	1.99
150.2337	0.18
150.3825	0.13
150.5318	0.12
150.9862	5.78
151.9789	17.1
152.3183	0.32
152.9824	19.86
153.3284	0.19
153.4908	0.15
153.5902	0.19
153.9911	8.96
154.9948	25.28
155.3393	0.1
155.513	0.25
156.001	14.0
157.0012	21.29
157.3374	0.11
157.4836	0.14
158.0016	7.94
158.9992	23.31
159.2268	0.16
159.5929	0.13
159.9965	6.87
160.2099	0.07
160.4409	0.19
160.5503	0.09
161.0073	12.93
161.3072	0.24
161.4722	0.12
161.9941	4.4
162.3057	0.2
162.5115	0.17
162.9878	5.06
163.2219	0.16
163.9719	2.08
164.2825	0.47
164.9759	28.71
165.2931	0.22
165.9819	8.75
166.1857	0.28
166.4215	0.24
166.9873	18.5
167.239	0.13
167.9975	6.87
168.5721	0.25
169.0021	17.72
169.2118	0.31
169.4456	0.17
170.0132	6.56
170.2815	0.2
171.0118	14.29
171.4052	0.19
171.5928	0.14
172.0006	6.3
172.2803	0.15
172.5006	0.13
173.0127	15.22
173.2772	0.11
173.5245	0.14
174.0094	3.16
174.32	0.14
174.5177	0.14
175.0093	5.23
175.3038	0.14
175.9804	3.21
176.2019	0.23
176.308	0.2
176.3774	0.07
176.5394	0.24
177.0007	3.93
177.2456	0.32
177.363	0.31
177.988	14.78
178.3835	0.2
178.9938	16.85
179.3694	0.07
179.6206	0.14
180.0052	6.37
180.2309	0.17
181.0077	13.56
181.3733	0.14
181.5315	0.09
182.0194	6.15
182.3815	0.17
183.0241	14.88
183.3369	0.19
183.588	0.21
184.025	5.28
184.2328	0.12
184.4005	0.11
184.577	0.18
185.0314	11.32
185.4295	0.18
185.5164	0.09
186.0289	3.33
186.2612	0.21
186.3677	0.16
186.6084	0.15
187.0258	7.47
187.2727	0.23
187.3634	0.11
187.5284	0.06
187.6331	0.06
188.0259	3.28
188.2911	0.23
188.4674	0.2
189.0128	8.55
189.2692	0.19
190.0174	3.4
190.3376	0.28
190.506	0.3
191.0205	9.98
191.3997	0.2
191.5482	0.25
191.6189	0.15
192.0356	6.37
192.4314	0.18
193.046	10.85
193.2821	0.17
193.41	0.12
193.507	0.07
193.6176	0.13
194.0502	4.43
195.0589	12.53
195.3712	0.24
195.5723	0.1
196.0544	4.16
197.0676	14.63
197.3092	0.18
197.4912	0.1
198.0693	3.49
198.4345	0.15
199.0757	9.71
199.4541	0.23
199.5678	0.09
199.8015	0.28
200.0721	3.22
200.3873	0.29
200.6097	0.17
201.0692	5.56
201.3966	0.2
202.0356	6.17
202.3027	0.22
203.0577	6.72
203.3155	0.15
203.5269	0.1
204.0548	2.66
204.3558	0.12
205.0433	7.05
205.4499	0.14
205.5404	0.12
206.0578	4.48
206.2666	0.24
206.3703	0.16
206.5195	0.09
206.603	0.09
207.0648	7.86
207.4825	0.18
208.0692	3.82
208.6119	0.26
208.7175	0.15
209.0692	10.28
209.38	0.2
209.5049	0.15
209.6341	0.14
210.0624	3.77
210.5322	0.23
211.0757	10.93
211.3407	0.33
211.5559	0.23
212.0799	4.18
212.4169	0.22
212.7285	0.21
213.0796	7.99
213.5413	0.18
214.0834	1.69
214.3124	0.15
214.4728	0.16
215.0471	5.21
215.4337	0.12
215.6539	0.12
216.0566	2.42
216.3793	0.18
216.6236	0.17
217.0593	4.11
217.2791	0.13
217.4928	0.09
218.0699	2.84
218.3325	0.21
218.4017	0.08
218.5938	0.17
219.0703	6.35
219.4014	0.15
219.552	0.14
219.7362	0.14
220.0729	2.85
220.3141	0.14
220.4653	0.17
220.6245	0.16
221.0789	6.42
221.4986	0.15
221.6003	0.11
222.0807	2.35
222.329	0.15
222.5749	0.11
223.0917	7.59
223.3047	0.22
223.4145	0.14
223.6138	0.23
224.0968	2.77
224.4479	0.14
224.6176	0.16
225.0895	7.33
225.4383	0.19
225.6193	0.14
226.0852	2.91
226.4987	0.12
227.0929	4.21
227.4019	0.17
227.5122	0.05
227.7273	0.26
228.0792	1.94
228.3887	0.11
228.5458	0.11
228.6826	0.15
229.0761	3.58
229.3361	0.07
229.4768	0.06
229.6646	0.09
230.0686	1.86
230.4683	0.09
230.7601	0.25
231.0886	4.34
231.3204	0.1
231.4455	0.09
232.0796	2.24
232.3327	0.14
232.4295	0.11
232.5693	0.08
233.0893	4.15
233.3165	0.21
233.4123	0.04
233.5205	0.09
233.6348	0.09
234.0921	2.01
234.3538	0.06
234.5905	0.22
234.7516	0.12
235.0989	4.9
235.44	0.11
235.5582	0.11
236.1071	1.97
236.3627	0.08
237.1078	5.13
237.339	0.14
237.4206	0.09
237.5319	0.11
237.655	0.07
238.1036	1.42
238.4961	0.16
238.6169	0.06
239.1047	3.7
239.3553	0.15
239.5473	0.16
239.6351	0.07
240.1127	2.01
240.3907	0.23
240.588	0.13
240.6984	0.04
241.1025	3.1
241.3479	0.09
241.4386	0.07
241.5797	0.12
241.6874	0.03
242.0656	0.94
242.3337	0.14
242.4957	0.05
242.5689	0.04
242.7639	0.22
243.085	1.73
243.5337	0.12
243.681	0.1
244.0934	1.27
244.2516	0.27
244.4212	0.13
244.6281	0.15
245.0735	3.03
245.4874	0.1
245.6348	0.1
246.071	1.41
246.3857	0.09
246.4485	0.06
246.5478	0.05
246.6489	0.07
247.0974	3.05
247.406	0.14
247.5114	0.14
247.5937	0.07
247.7998	0.09
248.09	1.77
248.3472	0.08
248.4871	0.07
248.6299	0.21
249.1073	3.93
249.4961	0.13
249.6568	0.1
250.1014	1.41
250.4978	0.18
250.6301	0.09
250.718	0.17
251.1055	4.27
251.3575	0.1
251.5829	0.19
252.0962	1.2
252.3732	0.17
252.4545	0.08
252.5703	0.07
252.6356	0.04
252.7136	0.05
253.0993	2.3
253.4066	0.05
253.6322	0.09
253.8109	0.07
254.1083	0.66
254.3126	0.18
254.4375	0.1
254.6408	0.01
254.7382	0.03
255.1057	1.37
255.4311	0.13
255.5957	0.13
255.7102	0.05
256.1198	0.84
256.5635	0.07
256.6714	0.05
256.7499	0.07
257.0972	1.27
257.4662	0.14
257.5949	0.06
257.6844	0.09
258.0681	0.8
258.1746	0.35
258.2934	0.11
258.3767	0.06
258.4973	0.05
258.6365	0.09
259.0761	1.89
259.3478	0.1
259.6702	0.22
260.0702	0.8
260.3007	0.27
260.4725	0.14
260.7353	0.18
261.1017	2.47
261.454	0.2
261.58	0.08
262.0871	1.47
262.2074	0.58
262.322	0.23
262.4205	0.05
262.5569	0.11
263.0935	3.67
263.4568	0.12
263.6647	0.12
264.1118	1.45
264.2957	0.23
264.4041	0.15
264.5079	0.13
264.7144	0.15
265.1063	2.82
265.3588	0.09
265.6483	0.12
265.8013	0.21
266.1264	1.19
266.3548	0.08
266.5164	0.09
267.1074	1.99
267.4832	0.09
267.807	0.13
268.0966	0.72
268.3587	0.1
268.454	0.13
268.6328	0.06
269.1007	1.86
269.3444	0.15
269.4349	0.09
269.5582	0.06
269.6473	0.09
269.7706	0.2
270.0959	0.48
270.342	0.12
270.433	0.15
270.5085	0.03
270.6621	0.08
271.1074	1.78
271.3436	0.13
271.5565	0.09
271.7662	0.14
272.1148	0.7
272.4677	0.15
272.5806	0.05
272.6764	0.06
273.082	1.42
273.4625	0.17
273.5759	0.13
273.7405	0.07
274.1111	1.1
274.4646	0.09
274.6653	0.17
275.1043	1.87
275.4721	0.13
275.5912	0.09
275.7298	0.16
275.8294	0.07
276.1166	0.96
276.4887	0.07
276.6833	0.22
277.1257	2.84
277.3849	0.16
277.5178	0.11
277.7215	0.17
278.1378	1.02
278.4673	0.16
278.7005	0.15
279.1316	1.55
279.3914	0.14
279.4659	0.09
279.6364	0.07
279.7276	0.07
279.795	0.04
279.9199	0.11
280.1479	0.65
280.3393	0.17
280.4955	0.13
280.6171	0.03
280.7121	0.01
280.8218	0.07
281.1353	1.35
281.4056	0.07
281.5262	0.11
281.7343	0.09
282.129	0.49
282.302	0.11
282.548	0.11
282.7827	0.08
283.1277	1.01
283.3229	0.17
283.3757	0.09
283.4836	0.06
283.5667	0.1
284.1597	2.02
284.5817	0.12
284.7181	0.06
285.1504	1.68
285.452	0.13
285.5654	0.12
285.655	0.04
285.7925	0.1
286.1497	0.45
286.4542	0.18
286.5681	0.03
286.736	0.11
287.1297	1.08
287.3091	0.21
287.4206	0.06
287.5719	0.11
287.8546	0.16
288.1441	0.62
288.3723	0.09
288.5716	0.06
288.8008	0.13
289.1486	1.64
289.6805	0.14
290.1385	0.65
290.3108	0.18
290.4944	0.19
290.6573	0.15
291.1513	2.68
291.4979	0.1
291.6426	0.08
291.7632	0.14
291.8828	0.13
292.1567	0.97
292.49	0.06
292.5783	0.08
293.1518	3.71
293.6399	0.26
293.7833	0.11
293.8896	0.12
294.1428	0.53
294.3317	0.17
294.4604	0.16
294.6651	0.08
294.7648	0.07
295.1429	5.01
295.4824	0.09
295.6443	0.14
296.1478	0.91
296.363	0.18
296.5259	0.12
297.1519	1.64
297.3776	0.07
297.4944	0.23
297.5928	0.1
297.7405	0.08
298.1676	0.67
298.3187	0.31
298.4394	0.02
298.5501	0.06
298.6299	0.03
298.7558	0.06
299.1169	0.39
299.4785	0.09
299.6258	0.1
299.8363	0.08
300.1599	0.78
300.5805	0.13
300.7806	0.08
301.1375	1.1
301.5111	0.07
301.6489	0.06
301.8253	0.04
302.1357	0.35
302.2079	0.15
302.3329	0.08
302.5169	0.09
302.6291	0.1
303.1567	1.27
303.4286	0.27
303.5637	0.03
303.6915	0.11
303.9031	0.16
304.1964	0.76
304.3567	0.27
304.7684	0.39
305.1507	1.79
305.5254	0.23
305.7679	0.18
306.1336	0.95
306.2668	0.44
306.4918	0.13
306.7029	0.1
306.8385	0.09
307.1894	1.67
307.4997	0.09
307.5853	0.1
307.6827	0.12
308.1898	0.84
308.4478	0.17
308.5576	0.14
308.7377	0.08
309.1869	1.0
309.6669	0.16
309.7763	0.07
310.1523	0.51
310.2507	0.35
310.4099	0.11
310.5616	0.2
310.708	0.08
311.1539	0.56
311.3008	0.31
311.5309	0.1
311.7572	0.15
312.1628	0.36
312.3358	0.07
312.497	0.09
312.6568	0.17
312.8432	0.06
313.1499	0.41
313.3335	0.19
313.5094	0.09
313.6801	0.08
313.8195	0.06
313.9645	0.19
314.0701	0.2
314.1895	0.22
314.2931	0.11
314.4063	0.03
314.6289	0.1
314.8144	0.13
315.1516	0.38
315.3575	0.2
315.5673	0.16
315.7932	0.11
316.1743	0.42
316.5334	0.16
316.6923	0.22
316.8402	0.16
316.9758	0.25
317.148	0.91
317.2955	0.61
317.4958	0.29
317.6985	0.14
317.8302	0.15
318.1771	0.54
318.3617	0.32
318.7794	0.24
319.2046	3.25
319.5414	0.16
319.6729	0.15
319.8995	0.22
320.2059	0.53
320.4073	0.16
320.6548	0.25
320.8282	0.15
321.1888	1.08
321.3555	0.35
321.5826	0.27
321.6942	0.19
322.1812	0.38
322.4938	0.24
323.1704	0.72
323.3624	0.29
323.5929	0.16
323.7407	0.2
324.1769	2.29
324.5865	0.26
324.7305	0.23
324.8869	0.25
325.018	0.22
325.2305	0.35
325.5532	0.34
325.653	0.18
325.8602	0.23
325.9691	0.15
326.0775	0.28
326.2476	0.2
326.3764	0.19
326.5048	0.07
326.6183	0.13
326.8365	0.15
326.9292	0.11
327.1517	0.23
327.4136	0.24
327.5363	0.04
327.7046	0.11
327.7583	0.04
327.9156	0.12
328.1272	0.38
328.2527	0.17
328.4738	0.18
328.7191	0.16
328.8108	0.09
329.1769	0.72
329.3871	0.12
329.5521	0.13
329.6381	0.09
329.8269	0.07
330.0561	0.1
330.2472	0.05
330.378	0.08
330.6252	0.01
330.7294	0.09
331.1778	0.58
331.4465	0.04
331.6386	0.08
331.7637	0.02
332.0262	0.22
332.2231	0.34
332.4405	0.13
332.7406	0.07
332.8381	0.08
333.1801	1.2
333.368	0.34
333.5987	0.2
334.2285	8.42
334.5947	0.39
334.7118	0.2
334.8212	0.26
335.2075	1.71
335.5486	0.19
335.7003	0.19
336.1837	1.26
336.7799	0.25
337.2105	2.32
337.4817	0.29
337.6787	0.29
337.9961	0.52
338.1807	0.45
338.3059	0.28
338.579	0.32
338.965	0.35
339.2776	0.22
339.7208	0.3
340.2448	0.24
340.864	0.3
341.5147	0.46
341.7656	0.31
342.0774	0.27
342.4025	0.33
342.5724	0.31
342.7091	0.52
342.9428	0.42
343.2123	0.35
343.5984	0.27
344.124	0.4
344.5616	0.13
344.7768	0.17
345.1301	0.49
345.485	0.32
345.7464	0.26
346.128	0.36
346.4568	0.22
346.6174	0.13
347.2158	3.66
347.4976	0.31
347.6772	0.26
347.7695	0.24
348.1506	0.45
348.3484	0.33
348.5527	0.12
348.6834	0.25
348.7766	0.16
349.1954	1.0
349.6503	0.12
350.2188	2.01
350.4641	0.25
350.6552	0.15
350.7617	0.16
351.2219	6.04
351.6046	0.24
352.2246	2.09
352.5969	0.09
352.7862	0.15
353.2017	0.27
353.6692	0.32
354.0125	0.53
354.3249	0.42
354.8423	0.47
355.0601	0.52
355.2879	0.49
355.5866	0.52
356.6216	0.6
357.5196	0.85
358.1955	0.79
358.8097	0.83
359.2169	0.91
359.5258	1.13
359.7234	0.81
360.1963	1.03
361.2018	1.56
362.2303	16.23
363.2013	1.35
363.7114	0.43
364.1886	0.97
365.2249	15.95
365.6176	0.73
365.9551	0.3
366.2741	0.45
366.7225	0.44
366.9954	0.34
367.2583	0.59
367.5697	0.63
367.9126	0.56
368.3453	0.62
368.8726	0.9
369.2302	0.9
369.4428	0.89
369.6858	0.76
370.081	0.89
370.6298	0.99
371.1915	0.79
371.845	0.85
372.929	1.18
380.2157	99.97
380.9933	34.28
381.5678	14.59
382.1271	7.2
382.8158	3.64
383.2657	2.35
383.9326	1.29
384.5529	0.94
385.1308	0.54
385.5812	0.39
385.7868	0.36
END IONS