BEGIN IONS
PEPMASS=191.118
CHARGE=1
MSLEVEL=2
SOURCE_INSTRUMENT=ESI-LC-ESI-QTOF
FILENAME=Massbank_ESI_positive_8_1_2014_peaks.mgf
SEQ=*..*
IONMODE=Positive
ORGANISM=MASSBANK
NAME=Massbank:BML00001 Cytisine [M+H]+
PI=Putative Massbank Match
DATACOLLECTOR=Massbank
SMILES=C1[C@H]2CNC[C@@H]1C3=CC=CC(=O)N3C2
INCHI=1S/C11H14N2O/c14-11-3-1-2-10-9-4-8(5-12-6-9)7-13(10)11/h1-3,8-9,12H,4-7H2/t8-,9+/m0/s1
INCHIAUX=N/A
PUBMED=N/A
SUBMITUSER=mwang87
LIBRARYQUALITY=3
SPECTRUMID=CCMSLIB00000204741
SCANS=1
148.0752	7916.0
191.1173	46297.0
191.1565	668.0
191.1792	829.0
191.2088	492.0
191.2447	1265.0
END IONS


BEGIN IONS
PEPMASS=683.354
CHARGE=1
MSLEVEL=2
SOURCE_INSTRUMENT=ESI-LC-ESI-QTOF
FILENAME=Massbank_ESI_positive_8_1_2014_peaks.mgf
SEQ=*..*
IONMODE=Positive
ORGANISM=MASSBANK
NAME=Massbank:BML00002 Methyllycaconitine [M+H]+
PI=Putative Massbank Match
DATACOLLECTOR=Massbank
SMILES=CCN1CC2(CCC(C34C2C(C(C31)(C5(CC(C6CC4C5C6OC)OC)O)O)OC)OC)COC(=O)C7=CC=CC=C7N8C(=O)CC(C8=O)C
INCHI=1S/C37H50N2O10/c1-7-38-17-34(18-49-32(42)20-10-8-9-11-23(20)39-26(40)14-19(2)31(39)41)13-12-25(46-4)36-22-15-21-24(45-3)16-35(43,27(22)28(21)47-5)37(44,33(36)38)30(48-6)29(34)36/h8-11,19,21-22,24-25,27-30,33,43-44H,7,12-18H2,1-6H3
INCHIAUX=N/A
PUBMED=N/A
SUBMITUSER=mwang87
LIBRARYQUALITY=3
SPECTRUMID=CCMSLIB00000204742
SCANS=2
683.3516	8045.0
683.4942	187.0
683.5849	118.0
684.3588	112.0
END IONS


BEGIN IONS
PEPMASS=383.187
CHARGE=1
MSLEVEL=2
SOURCE_INSTRUMENT=ESI-LC-ESI-QTOF
FILENAME=Massbank_ESI_positive_8_1_2014_peaks.mgf
SEQ=*..*
IONMODE=Positive
ORGANISM=MASSBANK
NAME=Massbank:BML00003 1-(2,3-dibenzimidazol-2-ylpropyl)-2-methoxybenzene [M+H]+
PI=Putative Massbank Match
DATACOLLECTOR=Massbank
SMILES=COC1=CC=CC=C1CC(CC2=NC3=CC=CC=C3N2)C4=NC5=CC=CC=C5N4
INCHI=1S/C24H22N4O/c1-29-22-13-7-2-8-16(22)14-17(24-27-20-11-5-6-12-21(20)28-24)15-23-25-18-9-3-4-10-19(18)26-23/h2-13,17H,14-15H2,1H3,(H,25,26)(H,27,28)
INCHIAUX=N/A
PUBMED=N/A
SUBMITUSER=mwang87
LIBRARYQUALITY=3
SPECTRUMID=CCMSLIB00000204743
SCANS=3
261.1134	161.0
262.117	198.0
265.1336	356.0
383.1863	13459.0
383.2584	154.0
383.3162	164.0
383.3614	220.0
END IONS


BEGIN IONS
PEPMASS=367.192
CHARGE=1
MSLEVEL=2
SOURCE_INSTRUMENT=ESI-LC-ESI-QTOF
FILENAME=Massbank_ESI_positive_8_1_2014_peaks.mgf
SEQ=*..*
IONMODE=Positive
ORGANISM=MASSBANK
NAME=Massbank:BML00004 2-{2-benzimidazol-2-yl-1-[(4-methylphenyl)methyl]ethyl}benzimidazole [M+H]+
PI=Putative Massbank Match
DATACOLLECTOR=Massbank
SMILES=CC1=CC=C(C=C1)CC(CC2=NC3=CC=CC=C3N2)C4=NC5=CC=CC=C5N4
INCHI=1S/C24H22N4/c1-16-10-12-17(13-11-16)14-18(24-27-21-8-4-5-9-22(21)28-24)15-23-25-19-6-2-3-7-20(19)26-23/h2-13,18H,14-15H2,1H3,(H,25,26)(H,27,28)
INCHIAUX=N/A
PUBMED=N/A
SUBMITUSER=mwang87
LIBRARYQUALITY=3
SPECTRUMID=CCMSLIB00000204744
SCANS=4
249.1365	317.0
261.1118	108.0
262.118	238.0
367.1912	7710.0
367.2473	134.0
367.2746	241.0
367.3663	124.0
END IONS


BEGIN IONS
PEPMASS=308.149
CHARGE=1
MSLEVEL=2
SOURCE_INSTRUMENT=ESI-LC-ESI-QTOF
FILENAME=Massbank_ESI_positive_8_1_2014_peaks.mgf
SEQ=*..*
IONMODE=Positive
ORGANISM=MASSBANK
NAME=Massbank:BML00005 Foliosidine|8-(2,3-dihydroxy-3-methylbutoxy)-4-methoxy-1-methylhydroquinolin-2-one [M+H]+
PI=Putative Massbank Match
DATACOLLECTOR=Massbank
SMILES=CC(C)(C(COC1=CC=CC2=C1N(C(=O)C=C2OC)C)O)O
INCHI=1S/C16H21NO5/c1-16(2,20)13(18)9-22-11-7-5-6-10-12(21-4)8-14(19)17(3)15(10)11/h5-8,13,18,20H,9H2,1-4H3
INCHIAUX=N/A
PUBMED=N/A
SUBMITUSER=mwang87
LIBRARYQUALITY=3
SPECTRUMID=CCMSLIB00000204745
SCANS=5
146.0574	34.0
204.0675	72.0
205.0712	204.0
206.0787	209.0
218.0829	88.0
230.0857	34.0
260.1255	33.0
272.1247	81.0
290.1382	1131.0
290.1915	39.0
308.1488	3181.0
308.1955	151.0
308.2339	35.0
308.3067	55.0
END IONS


BEGIN IONS
PEPMASS=260.092
CHARGE=1
MSLEVEL=2
SOURCE_INSTRUMENT=ESI-LC-ESI-QTOF
FILENAME=Massbank_ESI_positive_8_1_2014_peaks.mgf
SEQ=*..*
IONMODE=Positive
ORGANISM=MASSBANK
NAME=Massbank:BML00007 Skimmianine [M+H]+
PI=Putative Massbank Match
DATACOLLECTOR=Massbank
SMILES=COC1=C(C2=C(C=C1)C(=C3C=COC3=N2)OC)OC
INCHI=1S/C14H13NO4/c1-16-10-5-4-8-11(13(10)18-3)15-14-9(6-7-19-14)12(8)17-2/h4-7H,1-3H3
INCHIAUX=N/A
PUBMED=N/A
SUBMITUSER=mwang87
LIBRARYQUALITY=3
SPECTRUMID=CCMSLIB00000204746
SCANS=6
184.0313	92.0
199.0636	98.0
216.0648	137.0
227.0571	897.0
245.0668	556.0
260.091	6100.0
260.1409	191.0
260.1645	119.0
260.2391	87.0
END IONS


BEGIN IONS
PEPMASS=332.186
CHARGE=1
MSLEVEL=2
SOURCE_INSTRUMENT=ESI-LC-ESI-QTOF
FILENAME=Massbank_ESI_positive_8_1_2014_peaks.mgf
SEQ=*..*
IONMODE=Positive
ORGANISM=MASSBANK
NAME=Massbank:BML00008 Bucharaine [M+H]+
PI=Putative Massbank Match
DATACOLLECTOR=Massbank
SMILES=C/C(=C\COC1=CC(=O)NC2=CC=CC=C21)/CCC(C(C)(C)O)O
INCHI=1S/C19H25NO4/c1-13(8-9-17(21)19(2,3)23)10-11-24-16-12-18(22)20-15-7-5-4-6-14(15)16/h4-7,10,12,17,21,23H,8-9,11H2,1-3H3,(H,20,22)/b13-10+
INCHIAUX=N/A
PUBMED=N/A
SUBMITUSER=mwang87
LIBRARYQUALITY=3
SPECTRUMID=CCMSLIB00000204747
SCANS=7
144.0386	24.0
153.1263	56.0
162.0529	744.0
162.0884	23.0
192.9589	31.0
332.139	37.0
END IONS


BEGIN IONS
PEPMASS=258.112
CHARGE=1
MSLEVEL=2
SOURCE_INSTRUMENT=ESI-LC-ESI-QTOF
FILENAME=Massbank_ESI_positive_8_1_2014_peaks.mgf
SEQ=*..*
IONMODE=Positive
ORGANISM=MASSBANK
NAME=Massbank:BML00009 9-methoxy-2,2-dimethyl-6-hydro-2H-pyrano[5,6-c]quinolin-5-one [M+H]+
PI=Putative Massbank Match
DATACOLLECTOR=Massbank
SMILES=CC1(C=CC2=C(O1)C3=C(C=CC(=C3)OC)NC2=O)C
INCHI=1S/C15H15NO3/c1-15(2)7-6-10-13(19-15)11-8-9(18-3)4-5-12(11)16-14(10)17/h4-8H,1-3H3,(H,16,17)
INCHIAUX=N/A
PUBMED=N/A
SUBMITUSER=mwang87
LIBRARYQUALITY=3
SPECTRUMID=CCMSLIB00000204748
SCANS=8
179.9641	66.0
204.0607	106.0
216.0651	282.0
240.1015	180.0
258.1118	6205.0
258.1567	217.0
258.2593	98.0
END IONS


BEGIN IONS
PEPMASS=624.462
CHARGE=1
MSLEVEL=2
SOURCE_INSTRUMENT=ESI-LC-ESI-QTOF
FILENAME=Massbank_ESI_positive_8_1_2014_peaks.mgf
SEQ=*..*
IONMODE=Positive
ORGANISM=MASSBANK
NAME=Massbank:BML00012 1,2,6,6,10,17,20-heptamethyl-12-oxo-17-[(2-piperidylethyl)oxycarbonyl]pentacyclo[12.8.0.0<2,11>.0<5,10>.0<15,20>]docos-13-en-7-yl acetate [M+H]+
PI=Putative Massbank Match
DATACOLLECTOR=Massbank
SMILES=CC(=O)OC1CCC2(C(C1(C)C)CCC3(C2C(=O)C=C4C3(CCC5(C4CC(CC5)(C)C(=O)OCCN6CCCCC6)C)C)C)C
INCHI=1S/C39H61NO5/c1-26(41)45-31-13-14-37(6)30(34(31,2)3)12-15-39(8)32(37)29(42)24-27-28-25-36(5,17-16-35(28,4)18-19-38(27,39)7)33(43)44-23-22-40-20-10-9-11-21-40/h24,28,30-32H,9-23,25H2,1-8H3
INCHIAUX=N/A
PUBMED=N/A
SUBMITUSER=mwang87
LIBRARYQUALITY=3
SPECTRUMID=CCMSLIB00000204749
SCANS=9
267.2645	25.0
624.4547	118.0
END IONS


BEGIN IONS
PEPMASS=467.277
CHARGE=1
MSLEVEL=2
SOURCE_INSTRUMENT=ESI-LC-ESI-QTOF
FILENAME=Massbank_ESI_positive_8_1_2014_peaks.mgf
SEQ=*..*
IONMODE=Positive
ORGANISM=MASSBANK
NAME=Massbank:BML00013 (19R)-9-acetyl-19-hydroxy-10,14-dimethyl-20-oxopentacyclo[11.8.0.0<2,10>.0<4,9 >.0<14,19>]henicos-17-yl acetate [M+Na]+
PI=Putative Massbank Match
DATACOLLECTOR=Massbank
SMILES=CC(=O)C12CCCCC1CC3C2(CCC4C3CC(=O)C5(C4(CCC(C5)OC(=O)C)C)O)C
INCHI=1S/C27H40O5/c1-16(28)26-10-6-5-7-18(26)13-22-20-14-23(30)27(31)15-19(32-17(2)29)8-11-25(27,4)21(20)9-12-24(22,26)3/h18-22,31H,5-15H2,1-4H3
INCHIAUX=N/A
PUBMED=N/A
SUBMITUSER=mwang87
LIBRARYQUALITY=3
SPECTRUMID=CCMSLIB00000204750
SCANS=10
407.2535	21.0
467.2734	375.0
END IONS
